21
273 252 
366 361 
259 419 
274 372 466 
307 251 283 
474 444 268 
430 288 410 
450 395 366 
370 414 254 
292 275 275 
445 351 269 
287 258 252 
271 303 263 
298 473 320 
439 262 363 
269 299 350 
347 366 315 
350 255 495 
261 273 298 
357 355 272 
472 252 272 
